79 -1 7 21 40 -10 63 11 24 6 23 -13 74 60 39 3 77 51 -17 31 27 59 5 44 12 62 -29 20 75 57 19 26 35 65 69 56 47 15 33 64 -30 78 61 16 43 68 8 37 2 34 -38 72 54 9 55 41 25 46 -42 53 66 67 36 73 49 -52 28 79 18 48 14 71 -58 32 4 22 45 50 76 70 0

